1
120
67
30 2
31 1
32 3
33 5
34 3
35 4
36 5
37 8
38 2
39 1
40 1
41 1
42 5
43 4
44 6
45 1
46 1
47 3
48 5
49 6
50 4
51 2
52 1
53 2
54 3
55 1
56 3
57 5
58 4
59 3
60 4
61 3
62 4
63 2
64 1
65 2
66 8
67 3
68 3
69 2
71 1
72 3
73 3
75 4
76 4
77 6
78 2
79 3
80 4
81 3
82 1
83 3
84 1
85 1
86 4
87 2
88 1
89 3
90 3
93 4
94 4
95 2
96 1
97 2
98 4
99 3
100 1
